c WARNING: for repeatability, setting FPU to use double precision
d VARIABLES            73512        
d CONSTRAINTS          260596       
c ============================[ Problem Statistics ]=============================
c |                                                                             |
c |  Number of variables:         73512                                         |
c |  Number of clauses:          260596                                         |
c |  Parse time:                   0.04 s                                       |
c |                                                                             |
c ============================[ Search Statistics ]==============================
c | Conflicts |          ORIGINAL         |          LEARNT          | Progress |
c |           |    Vars  Clauses Literals |    Limit  Clauses Lit/Cl |          |
c ===============================================================================
c |       100 |   53833   209770   527739 |    76915      100     50 | 26.770 % |
c |       250 |   53833   209770   527739 |    84607      250     29 | 26.770 % |
c |       475 |   53833   209770   527739 |    93067      475     31 | 26.770 % |
c |       812 |   53833   209770   527739 |   102374      812     26 | 26.770 % |
c |      1318 |   53833   209770   527739 |   112612     1318     50 | 26.770 % |
c |      2077 |   53833   209770   527739 |   123873     2077     77 | 26.770 % |
c |      3216 |   53833   209770   527739 |   136260     3216     96 | 26.770 % |
c |      4924 |   53833   209770   527739 |   149886     4924     92 | 26.770 % |
c |      7486 |   53833   209770   527739 |   164875     7486     85 | 26.770 % |
c |     11330 |   53833   209770   527739 |   181363    11330     76 | 26.770 % |
c |     17096 |   53833   209770   527739 |   199499    17096     82 | 26.770 % |
c |     25745 |   53832   209762   527721 |   219449    25739     84 | 26.771 % |
c |     38719 |   53831   209754   527703 |   241394    38712     81 | 26.772 % |
c |     58180 |   53831   209754   527703 |   265533    58173     72 | 26.772 % |
c |     87372 |   53828   209728   527644 |   292087    87353     68 | 26.777 % |
c |    131161 |   53828   209728   527644 |   321295   131142     65 | 26.777 % |
c |    196845 |   53827   209718   527621 |   353425   196819     62 | 26.778 % |
c |    295371 |   53827   209718   527621 |   388767   295345     57 | 26.778 % |
c |    443160 |   53824   209692   527562 |   427644    64168     49 | 26.782 % |
c ===============================================================================
c restarts              : 1045
c conflicts             : 517512         (3061 /sec)
c decisions             : 867164         (0.00 % random) (5128 /sec)
c propagations          : 482009479      (2850599 /sec)
c conflict literals     : 27305355       (57.91 % deleted)
d RESTARTS             1045
d FAILURES             517512       
d NODES                867164       
d BACKTRACKS           867164       
d PROPAGATIONS         482009479    
d NOGOODSIZE           52.76 
d MEMORY               183.00 
d TIME                 169.091 

s UNSATISFIABLE
